207,481
178,327
624,424
735,512
822,600
734,379
699,349
799,424
658,554
735,512
888,374
858,434
765,322
802,318
823,360
937,489
488,672
616,820
363,724
399,794
616,820
488,672
765,322
1135,175
935,152
597,-127
681,-134
542,-21
871,216
751,-38
850,283
1184,327
829,554
441,406
363,724
178,327
